NAME:  test1
TYPE: AGTSP
COMMENT: gtsp tours
DIMENSION: 85 
GTSP_SETS: 13
EDGE_WEIGHT_TYPE: EXPLICIT
EDGE_WEIGHT_FORMAT: FULL_MATRIX 
EDGE_WEIGHT_SECTION
999999	0	999999	999999	999999	999999	999999	24716	24716	24716	24716	24716	24716	24708	24697	24697	24697	24697	24689	999999	999999	24687	24687	24687	24679	999999	999999	999999	24690	24690	24690	24682	999999	999999	999999	24688	24688	24688
999999	999999	0	999999	999999	999999	999999	24716	24716	24716	999999	999999	999999	999999	24697	24697	24697	24697	24697	24689	999999	24687	24687	24687	24687	24679	999999	999999	24690	24690	24690	24690	24682	999999	999999	24688	24688	24688
999999	999999	999999	0	999999	999999	999999	24716	24716	24716	24716	999999	999999	999999	24697	24697	24697	24697	24697	24697	24689	24687	24687	24687	24687	24687	24679	999999	24690	24690	24690	24690	24690	24682	999999	24688	24688	24688
999999	999999	999999	999999	0	999999	999999	24716	24716	24716	24716	24716	999999	999999	24697	24697	24697	24697	24697	999999	999999	24687	24687	24687	24687	24687	24687	24679	24690	24690	24690	24690	24690	24690	24682	24688	24688	24688
999999	999999	999999	999999	999999	0	999999	24716	24716	24716	24716	24716	24716	999999	24697	24697	24697	24697	24697	24697	999999	24687	24687	24687	24687	24687	24687	999999	24690	24690	24690	24690	24690	24690	999999	24688	24688	24688
999999	999999	999999	999999	999999	999999	0	24716	24716	24716	24716	24716	24716	24716	24697	24697	24697	24697	24697	24697	24697	24687	24687	24687	24687	24687	24687	24687	24690	24690	24690	24690	24690	24690	24690	24688	24688	24688
0	999999	999999	999999	999999	999999	999999	24716	24716	24716	24716	24716	24708	999999	24697	24697	24697	24689	999999	999999	999999	24687	24687	24679	999999	999999	999999	999999	24690	24690	24682	999999	999999	999999	999999	24688	24688	24680
24716	24716	24716	24716	24716	24716	24708	999999	0	999999	999999	999999	999999	999999	24697	24697	24697	24697	24689	999999	999999	24723	24723	24723	24723	24723	24723	24715	24698	24698	24698	24698	24690	999999	999999	24695	24695	24695
24716	24716	24716	999999	999999	999999	999999	999999	999999	0	999999	999999	999999	999999	24697	24697	24697	24697	24697	24689	999999	24723	24723	24723	999999	999999	999999	999999	24698	24698	24698	24698	24698	24690	999999	24695	24695	24695
24716	24716	24716	24716	999999	999999	999999	999999	999999	999999	0	999999	999999	999999	24697	24697	24697	24697	24697	24697	24689	24723	24723	24723	24723	999999	999999	999999	24698	24698	24698	24698	24698	24698	24690	24695	24695	24695
24716	24716	24716	24716	24716	999999	999999	999999	999999	999999	999999	0	999999	999999	24697	24697	24697	24697	24697	999999	999999	24723	24723	24723	24723	24723	999999	999999	24698	24698	24698	24698	24698	999999	999999	24695	24695	24695
24716	24716	24716	24716	24716	24716	999999	999999	999999	999999	999999	999999	0	999999	24697	24697	24697	24697	24697	24697	999999	24723	24723	24723	24723	24723	24723	999999	24698	24698	24698	24698	24698	24698	999999	24695	24695	24695
24716	24716	24716	24716	24716	24716	24716	999999	999999	999999	999999	999999	999999	0	24697	24697	24697	24697	24697	24697	24697	24723	24723	24723	24723	24723	24723	24723	24698	24698	24698	24698	24698	24698	24698	24695	24695	24695
24716	24716	24716	24716	24716	24708	999999	0	999999	999999	999999	999999	999999	999999	24697	24697	24697	24689	999999	999999	999999	24723	24723	24723	24723	24723	24715	999999	24698	24698	24698	24690	999999	999999	999999	24695	24695	24695
24697	24697	24697	24697	24689	999999	999999	24697	24697	24697	24697	24689	999999	999999	999999	0	999999	999999	999999	999999	999999	24714	24714	24714	24714	24714	24706	999999	24673	24673	24665	999999	999999	999999	999999	24683	24683	24683
24697	24697	24697	24697	24697	24689	999999	24697	24697	24697	24697	24697	24689	999999	999999	999999	0	999999	999999	999999	999999	24714	24714	24714	24714	24714	24714	24706	24673	24673	24673	24665	999999	999999	999999	24683	24683	24683
24697	24697	24697	24697	24697	24697	24689	24697	24697	24697	24697	24697	24697	24689	999999	999999	999999	0	999999	999999	999999	24714	24714	24714	24714	999999	999999	999999	24673	24673	24673	24673	24665	999999	999999	24683	24683	24683
24697	24697	24697	24697	24697	999999	999999	24697	24697	24697	24697	24697	999999	999999	999999	999999	999999	999999	0	999999	999999	24714	24714	24714	24714	24714	999999	999999	24673	24673	24673	24673	24673	24665	999999	24683	24683	24683
24697	24697	24697	24697	24697	24697	999999	24697	24697	24697	24697	24697	24697	999999	999999	999999	999999	999999	999999	0	999999	24714	24714	24714	24714	24714	24714	999999	24673	24673	24673	24673	24673	24673	24665	24683	24683	24683
24697	24697	24697	24697	24697	24697	24697	24697	24697	24697	24697	24697	24697	24697	999999	999999	999999	999999	999999	999999	0	24714	24714	24714	24714	24714	24714	24714	24673	24673	24673	24673	24673	24673	24673	24683	24683	24683
24697	24697	24697	24689	999999	999999	999999	24697	24697	24697	24689	999999	999999	999999	0	999999	999999	999999	999999	999999	999999	24714	24714	24714	24714	24706	999999	999999	24673	24665	999999	999999	999999	999999	999999	24683	24683	24675
24687	24687	24687	24679	999999	999999	999999	24723	24723	24723	24723	24723	24723	24715	24714	24714	24714	24714	24714	24706	999999	999999	0	999999	999999	999999	999999	999999	24707	24707	24707	24707	24707	24699	999999	24699	24699	24699
24687	24687	24687	24687	24679	999999	999999	24723	24723	24723	999999	999999	999999	999999	24714	24714	24714	24714	24714	24714	24706	999999	999999	0	999999	999999	999999	999999	24707	24707	24707	24707	24707	24707	24699	24699	24699	24699
24687	24687	24687	24687	24687	24679	999999	24723	24723	24723	24723	999999	999999	999999	24714	24714	24714	24714	999999	999999	999999	999999	999999	999999	0	999999	999999	999999	24707	24707	24707	24707	999999	999999	999999	24699	24699	24699
24687	24687	24687	24687	24687	24687	24679	24723	24723	24723	24723	24723	999999	999999	24714	24714	24714	24714	24714	999999	999999	999999	999999	999999	999999	0	999999	999999	24707	24707	24707	24707	24707	999999	999999	24699	24699	24699
24687	24687	24687	24687	24687	24687	999999	24723	24723	24723	24723	24723	24723	999999	24714	24714	24714	24714	24714	24714	999999	999999	999999	999999	999999	999999	0	999999	24707	24707	24707	24707	24707	24707	999999	24699	24699	24699
24687	24687	24687	24687	24687	24687	24687	24723	24723	24723	24723	24723	24723	24723	24714	24714	24714	24714	24714	24714	24714	999999	999999	999999	999999	999999	999999	0	24707	24707	24707	24707	24707	24707	24707	24699	24699	24699
24687	24687	24679	999999	999999	999999	999999	24723	24723	24723	24723	24723	24715	999999	24714	24714	24714	24714	24706	999999	999999	0	999999	999999	999999	999999	999999	999999	24707	24707	24707	24707	24699	999999	999999	24699	24699	24699
24690	24690	24690	24682	999999	999999	999999	24698	24698	24698	24698	24690	999999	999999	24673	24673	24665	999999	999999	999999	999999	24707	24707	24707	24707	24707	24699	999999	999999	0	999999	999999	999999	999999	999999	24677	24677	24669
24690	24690	24690	24690	24682	999999	999999	24698	24698	24698	24698	24698	24690	999999	24673	24673	24673	24665	999999	999999	999999	24707	24707	24707	24707	24707	24707	24699	999999	999999	0	999999	999999	999999	999999	24677	24677	24677
24690	24690	24690	24690	24690	24682	999999	24698	24698	24698	24698	24698	24698	24690	24673	24673	24673	24673	24665	999999	999999	24707	24707	24707	24707	999999	999999	999999	999999	999999	999999	0	999999	999999	999999	24677	24677	24677
24690	24690	24690	24690	24690	24690	24682	24698	24698	24698	24698	24698	999999	999999	24673	24673	24673	24673	24673	24665	999999	24707	24707	24707	24707	24707	999999	999999	999999	999999	999999	999999	0	999999	999999	24677	24677	24677
24690	24690	24690	24690	24690	24690	999999	24698	24698	24698	24698	24698	24698	999999	24673	24673	24673	24673	24673	24673	24665	24707	24707	24707	24707	24707	24707	999999	999999	999999	999999	999999	999999	0	999999	24677	24677	24677
24690	24690	24690	24690	24690	24690	24690	24698	24698	24698	24698	24698	24698	24698	24673	24673	24673	24673	24673	24673	24673	24707	24707	24707	24707	24707	24707	24707	999999	999999	999999	999999	999999	999999	0	24677	24677	24677
24690	24690	24682	999999	999999	999999	999999	24698	24698	24698	24690	999999	999999	999999	24673	24665	999999	999999	999999	999999	999999	24707	24707	24707	24707	24699	999999	999999	0	999999	999999	999999	999999	999999	999999	24677	24669	999999
24688	24688	24688	24680	999999	999999	999999	24695	24695	24695	24695	24687	999999	999999	24683	24683	24683	24675	999999	999999	999999	24699	24699	24699	24699	24691	999999	999999	24677	24677	24669	999999	999999	999999	999999	999999	0	999999
24688	24688	24688	24688	24680	999999	999999	24695	24695	24695	24695	24695	24687	999999	24683	24683	24683	24683	24675	999999	999999	24699	24699	24699	24699	24699	24691	999999	24677	24677	24677	24669	999999	999999	999999	999999	999999	0
24688	24688	24688	24688	24688	24680	999999	24695	24695	24695	24695	24695	24695	24687	24683	24683	24683	24683	24683	24675	999999	24699	24699	24699	24699	24699	24699	24691	24677	24677	24677	24677	24669	999999	999999	999999	999999	999999
GTSP_SET_SECTION:
1 1 2 3 4 5 6 7 -1
2 8 9 10 11 12 13 14 -1
3 15 16 17 18 19 20 21 -1
4 22 23 24 25 26 27 28 -1
5 29 30 31 32 33 34 35 -1
6 36 37 38 39 40 41 42 -1
7 43 44 45 46 47 48 49 -1
8 50 51 52 53 54 55 56 -1
9 57 58 59 60 61 62 63 -1
10 64 65 66 67 68 69 70 -1
11 71 72 73 74 75 76 77 -1
12 78 79 80 81 82 83 84 -1
13 85 -1
EOF